1 1 2 0
1 -1 3 0
1 1 4 0
1 -5 6 0
1 5 -2 0
1 5 -1 0
1 -7 8 0
1 -7 6 0
1 7 -2 0
1 7 9 0
1 -7 -4 0
1 10 11 0
1 10 6 0
1 -10 2 0
1 -10 -12 0
1 -10 7 0
1 10 3 0
1 10 -4 0
1 -2 -13 0
1 -2 10 0
1 -2 14 0
1 -2 -15 0
1 -2 -16 0
1 4 -13 0
1 4 -17 0
1 4 -10 0
1 4 2 0
1 4 14 0
1 4 -16 0
1 6 -18 0
1 -6 -10 0
1 6 -5 0
1 6 -19 0
1 6 14 0
1 -6 -20 0
1 6 -21 0
1 6 7 0
1 6 -1 0
1 -6 3 0
1 3 -22 0
1 3 -5 0
1 -3 14 0
1 3 -20 0
1 -3 -21 0
1 3 7 0
1 3 -1 0
1 3 -23 0
1 16 -11 0
1 -16 17 0
1 16 -9 0
1 16 -12 0
1 16 -21 0
1 -16 4 0
1 17 -8 0
1 17 -16 0
1 -17 4 0
1 15 -8 0
1 -15 11 0
1 -15 24 0
1 15 -9 0
1 -15 12 0
1 -15 -25 0
1 15 -20 0
1 24 -8 0
1 -24 26 0
1 24 22 0
1 -24 -27 0
1 -24 2 0
1 -24 -9 0
1 -24 12 0
1 24 -15 0
1 24 -25 0
1 -12 28 0
1 -12 11 0
1 12 -24 0
1 12 17 0
1 -12 -29 0
1 12 30 0
1 -12 15 0
1 12 -16 0
1 12 -7 0
1 -11 28 0
1 11 31 0
1 11 -24 0
1 -11 29 0
1 -11 -32 0
1 11 -12 0
1 11 15 0
1 11 16 0
1 -11 7 0
1 -11 -33 0
1 9 34 0
1 9 -24 0
1 9 17 0
1 -9 29 0
1 -9 35 0
1 -9 -14 0
1 9 -15 0
1 -9 -33 0
1 -8 34 0
1 -8 -13 0
1 -8 -29 0
1 -8 9 0
1 -8 35 0
1 8 -14 0
1 -8 -16 0
1 -8 33 0
1 -30 31 0
1 -30 -26 0
1 -30 27 0
1 -30 -12 0
1 -30 -14 0
1 31 -11 0
1 -31 -13 0
1 31 -27 0
1 31 30 0
1 -31 -36 0
1 32 -28 0
1 -32 -11 0
1 32 27 0
1 32 35 0
1 -32 -12 0
1 32 25 0
1 32 -36 0
1 -28 -11 0
1 -28 25 0
1 28 -36 0
1 -36 32 0
1 36 15 0
1 -27 -28 0
1 27 -31 0
1 27 -24 0
1 -27 36 0
1 -25 28 0
1 -25 -29 0
1 -25 32 0
1 -25 30 0
1 25 -37 0
1 26 28 0
1 26 -29 0
1 26 32 0
1 -26 -15 0
1 -26 37 0
1 -21 -38 0
1 21 39 0
1 21 -40 0
1 21 16 0
1 -21 3 0
1 18 -17 0
1 -18 -40 0
1 18 21 0
1 18 3 0
1 -20 -41 0
1 -20 -6 0
1 20 -39 0
1 -20 -40 0
1 -22 42 0
1 -22 43 0
1 22 -20 0
1 -22 -44 0
1 22 45 0
1 -38 40 0
1 -38 -22 0
1 38 -18 0
1 -38 35 0
1 38 -20 0
1 -40 -34 0
1 -40 -22 0
1 40 38 0
1 40 21 0
1 42 22 0
1 42 18 0
1 -42 -21 0
1 39 42 0
1 39 18 0
1 -39 20 0
1 14 -13 0
1 -14 41 0
1 14 -43 0
1 14 6 0
1 -14 9 0
1 14 44 0
1 -14 3 0
1 -14 -4 0
1 -13 -8 0
1 -13 -31 0
1 13 -38 0
1 13 41 0
1 -13 43 0
1 13 6 0
1 -13 -2 0
1 13 -40 0
1 -13 3 0
1 -13 4 0
1 35 46 0
1 -35 19 0
1 35 47 0
1 35 9 0
1 -35 40 0
1 35 -44 0
1 -34 -46 0
1 34 -28 0
1 34 -38 0
1 34 -41 0
1 -34 -47 0
1 34 -9 0
1 34 -35 0
1 34 40 0
1 -34 44 0
1 34 23 0
1 -43 -34 0
1 -43 48 0
1 43 29 0
1 43 14 0
1 43 -20 0
1 -43 -45 0
1 -43 37 0
1 -45 34 0
1 45 -13 0
1 45 -22 0
1 45 48 0
1 -45 -29 0
1 45 35 0
1 45 -14 0
1 -45 -37 0
1 -45 -33 0
1 -41 22 0
1 -41 -35 0
1 41 14 0
1 -41 -44 0
1 -44 -34 0
1 -44 -13 0
1 -44 35 0
1 -44 -14 0
1 -44 20 0
1 -29 -11 0
1 -29 -26 0
1 -29 -43 0
1 -29 19 0
1 -29 9 0
1 29 -47 0
1 -29 -12 0
1 29 -25 0
1 -29 45 0
1 29 23 0
1 29 -33 0
1 33 -8 0
1 -33 11 0
1 -33 -26 0
1 -33 43 0
1 33 19 0
1 33 -9 0
1 -33 -12 0
1 -33 25 0
1 -33 45 0
1 33 23 0
1 48 43 0
1 -48 -19 0
1 -48 47 0
1 -48 45 0
1 -48 -23 0
1 37 26 0
1 -37 -43 0
1 37 -25 0
1 37 23 0
1 47 -48 0
1 -47 -29 0
1 -47 2 0
1 47 -35 0
1 -47 33 0
1 -46 -34 0
1 46 48 0
1 46 -29 0
1 -46 47 0
1 -46 35 0
1 -46 4 0
1 46 -37 0
1 46 -33 0
1 -19 -34 0
1 19 -48 0
1 -19 -6 0
1 19 29 0
1 19 -35 0
1 -19 37 0
1 -19 -23 0
1 19 -33 0
1 -23 -34 0
1 23 19 0
1 -23 -3 0
1 -23 37 0
